param set_len = 52;
param target_sum = 15654025605;
param values := [1] 255025136 [2] 1030016653 [3] 772093727 [4] 157620007 [5] 995663388 [6] 623573742 [7] 720261519 [8] 932262450 [9] 339611567 [10] 573332397 [11] 11494638 [12] 92322658 [13] 274055541 [14] 1003475398 [15] 288933780 [16] 477154869 [17] 14778250 [18] 867782352 [19] 429320518 [20] 538551663 [21] 320980617 [22] 926877093 [23] 860306518 [24] 246092849 [25] 105077573 [26] 923267810 [27] 835440573 [28] 323973785 [29] 44961196 [30] 44751897 [31] 219264902 [32] 554790867 [33] 1068410306 [34] 154368907 [35] 700510791 [36] 1072700798 [37] 810125232 [38] 948257901 [39] 96234035 [40] 119310808 [41] 485462237 [42] 876518016 [43] 801588524 [44] 194694753 [45] 740491371 [46] 454239 [47] 944212373 [48] 36206213 [49] 14556570 [50] 508585557 [51] 853118545 [52] 379608795 ;
